(set-option :print-success false)
(set-logic QF_UF)
(declare-sort x113 0)
(declare-sort x69 0)
(declare-fun x58 (x69 x69) x69)
(declare-fun x97 (x69 x69) x69)
(declare-fun x18 () x69)
(declare-fun x24 () x69)
(declare-fun x150 () x69)
(declare-fun x133 () x69)
(declare-fun x82 () x69)
(assert (or (or (and (and (not (= (x97 (x97 x18 x18) x18) x18)) (and (not (= x150 (x97 (x97 x150 x18) x18))) (and (not (= (x97 (x97 x24 x18) x18) x24)) (not (= x82 (x97 (x97 x82 x18) x18)))))) (not (= (x97 (x97 x133 x18) x18) x133))) (or (or (and (and (and (and (not (= (x97 (x97 x24 x82) x82) x24)) (not (= x82 (x97 (x97 x82 x82) x82)))) (not (= (x97 (x97 x150 x82) x82) x150))) (not (= (x97 (x97 x18 x82) x82) x18))) (not (= (x97 (x97 x133 x82) x82) x133))) (and (and (not (= (x97 (x97 x18 x24) x24) x18)) (and (and (not (= x82 (x97 (x97 x82 x24) x24))) (not (= x24 (x97 (x97 x24 x24) x24)))) (not (= x150 (x97 (x97 x150 x24) x24))))) (not (= x133 (x97 (x97 x133 x24) x24))))) (and (not (= x133 (x97 (x97 x133 x150) x150))) (and (not (= (x97 (x97 x18 x150) x150) x18)) (and (not (= (x97 (x97 x150 x150) x150) x150)) (and (not (= (x97 (x97 x82 x150) x150) x82)) (not (= x24 (x97 (x97 x24 x150) x150))))))))) (and (and (and (and (not (= (x97 (x97 x82 x133) x133) x82)) (not (= x24 (x97 (x97 x24 x133) x133)))) (not (= (x97 (x97 x150 x133) x133) x150))) (not (= x18 (x97 (x97 x18 x133) x133)))) (not (= (x97 (x97 x133 x133) x133) x133)))))
(assert (let ((x61 (x97 x24 x133)) (x52 (x97 x133 x24)) (x22 (x97 x133 x18)) (x57 (x97 x133 x133)) (x73 (x97 x82 x18)) (x84 (x97 x82 x133)) (x41 (x97 x150 x150)) (x9 (x97 x150 x82)) (x70 (x97 x82 x24)) (x45 (x97 x24 x150)) (x126 (x97 x82 x82)) (x101 (x97 x24 x18)) (x6 (x97 x82 x150)) (x134 (x97 x18 x82)) (x71 (x97 x18 x18)) (x110 (x97 x18 x133)) (x123 (x97 x18 x150)) (x48 (x97 x133 x150)) (x2 (x97 x150 x133)) (x37 (x97 x24 x82)) (x13 (x97 x133 x82)) (x72 (x97 x18 x24)) (x92 (x97 x24 x24)) (x121 (x97 x150 x18)) (x1 (x97 x150 x24))) (let ((x34 (= x18 x92)) (x137 (= x133 x121)) (x42 (= x18 x41)) (x103 (= x133 x70)) (x62 (= x70 x82)) (x107 (= x13 x133)) (x94 (= x61 x150)) (x53 (= x82 x45)) (x127 (= x9 x150)) (x49 (= x72 x82)) (x51 (= x61 x18)) (x132 (= x24 x57)) (x5 (= x82 x110)) (x30 (= x2 x150)) (x112 (= x134 x24)) (x154 (= x18 x45)) (x95 (= x18 x121)) (x99 (= x18 x48)) (x50 (= x133 x71)) (x32 (= x150 x110)) (x106 (= x24 x71)) (x55 (= x24 x41)) (x125 (= x133 x101)) (x76 (= x18 x2)) (x155 (= x45 x24)) (x116 (= x121 x24)) (x25 (= x24 x22)) (x54 (= x24 x61)) (x104 (= x101 x150)) (x56 (= x92 x24)) (x7 (= x73 x82)) (x139 (= x2 x82)) (x63 (= x150 x92)) (x118 (= x101 x18)) (x40 (= x72 x18)) (x8 (= x84 x18)) (x4 (= x1 x133)) (x79 (= x82 x123)) (x147 (= x6 x82)) (x140 (= x24 x48)) (x130 (= x121 x82)) (x3 (= x110 x24)) (x68 (= x82 x126)) (x26 (= x52 x24)) (x109 (= x110 x133)) (x136 (= x84 x24)) (x19 (= x82 x57)) (x29 (= x82 x9)) (x138 (= x18 x1)) (x85 (= x52 x133)) (x64 (= x45 x133)) (x102 (= x24 x2)) (x88 (= x150 x6)) (x157 (= x41 x133)) (x122 (= x150 x123)) (x91 (= x71 x150)) (x149 (= x18 x71)) (x86 (= x37 x82)) (x148 (= x18 x73)) (x158 (= x121 x150)) (x93 (= x92 x82)) (x117 (= x48 x82)) (x66 (= x45 x150)) (x83 (= x13 x24)) (x98 (= x1 x82)) (x159 (= x70 x150)) (x153 (= x82 x71)) (x11 (= x72 x150)) (x35 (= x126 x150)) (x119 (= x61 x133)) (x31 (= x6 x133)) (x151 (= x18 x57)) (x77 (= x18 x126)) (x12 (= x73 x150)) (x14 (= x82 x13)) (x74 (= x134 x18)) (x87 (= x150 x52)) (x124 (= x22 x82)) (x39 (= x24 x70)) (x10 (= x82 x101)) (x28 (= x72 x24)) (x135 (= x18 x123)) (x17 (= x150 x37)) (x152 (= x150 x134)) (x120 (= x52 x18)) (x23 (= x123 x133)) (x20 (= x133 x126)) (x59 (= x82 x52)) (x75 (= x133 x134)) (x105 (= x22 x150)) (x33 (= x133 x2)) (x128 (= x18 x13)) (x21 (= x24 x1)) (x60 (= x150 x84)) (x27 (= x9 x24)) (x114 (= x41 x82)) (x44 (= x84 x133)) (x96 (= x6 x24)) (x78 (= x9 x18)) (x15 (= x24 x126)) (x145 (= x61 x82)) (x131 (= x6 x18)) (x90 (= x133 x37)) (x111 (= x82 x84)) (x100 (= x41 x150)) (x81 (= x133 x72)) (x142 (= x24 x123)) (x156 (= x73 x24)) (x141 (= x22 x18)) (x36 (= x133 x57)) (x46 (= x133 x22)) (x143 (= x57 x150)) (x43 (= x18 x37)) (x115 (= x150 x13)) (x65 (= x150 x48)) (x47 (= x18 x110)) (x67 (= x24 x37)) (x129 (= x1 x150)) (x80 (= x92 x133)) (x89 (= x133 x48)) (x146 (= x9 x133)) (x16 (= x82 x134)) (x38 (= x73 x133)) (x108 (= x101 x24)) (x144 (= x70 x18))) (and (and (and (and (and (and (and (or (or (or x78 (or x43 x77)) x74) x128) (or (or (or x131 (or x144 x77)) x148) x8)) (and (and (or (or x12 (or (or x159 x35) x88)) x60) (or (or x152 (or (or x35 x17) x127)) x115)) (and (and (or x136 (or x156 (or (or x15 x39) x96))) (or (or (or (or x15 x67) x27) x112) x83)) (and (or (or x16 (or x29 (or x86 x68))) x14) (or (or x7 (or (or x62 x68) x147)) x111))))) (and (or (or (or x31 (or x20 x103)) x38) x44) (or (or x75 (or (or x90 x20) x146)) x107))) (and (and (or (or x125 (or x64 (or x80 x90))) x119) (or (or (or (or x103 x80) x4) x81) x85)) (and (and (and (or (or x11 (or (or x63 x159) x129)) x87) (or (or (or (or x63 x17) x66) x104) x94)) (and (and (or (or (or x98 (or x62 x93)) x49) x59) (or (or (or x53 (or x86 x93)) x10) x145)) (and (or x54 (or x108 (or x155 (or x56 x67)))) (or x26 (or (or x21 (or x56 x39)) x28))))) (and (or x51 (or x118 (or (or x43 x34) x154))) (or x120 (or (or (or x34 x144) x138) x40)))))) (and (and (or (or (or x157 (or x64 x31)) x23) x89) (or (or x137 (or (or x4 x146) x157)) x33)) (and (and (and (and (or (or x142 (or (or x96 x155) x55)) x140) (or (or (or x55 (or x27 x21)) x116) x102)) (and (or x117 (or (or (or x147 x53) x114) x79)) (or (or (or (or x98 x29) x114) x130) x139))) (and (or x30 (or (or (or x129 x127) x100) x158)) (or (or x122 (or (or x88 x66) x100)) x65))) (and (or (or (or (or x131 x154) x42) x135) x99) (or (or (or x42 (or x78 x138)) x95) x76))))) (and (and (or (or (or x23 (or x81 x75)) x50) x109) (or x46 (or x50 (or (or x38 x125) x137)))) (and (and (and (or x32 (or x91 (or x122 (or x11 x152)))) (or (or (or x158 (or x12 x104)) x91) x105)) (and (and (or x3 (or x106 (or (or x112 x28) x142))) (or (or x106 (or x116 (or x108 x156))) x25)) (and (or x5 (or x153 (or x79 (or x16 x49)))) (or x124 (or (or x130 (or x7 x10)) x153))))) (and (or (or (or x135 (or x40 x74)) x149) x47) (or x141 (or x149 (or x95 (or x148 x118)))))))) (and (and (or x36 (or (or (or x119 x44) x33) x109)) (or x36 (or x46 (or (or x107 x85) x89)))) (and (and (or (or (or (or x128 x120) x99) x141) x151) (or x151 (or x47 (or (or x8 x51) x76)))) (and (and (or x143 (or (or (or x94 x60) x30) x32)) (or (or (or (or x87 x115) x65) x105) x143)) (and (and (or x19 (or (or (or x111 x145) x139) x5)) (or x19 (or (or x117 (or x59 x14)) x124))) (and (or (or (or (or x54 x136) x102) x3) x132) (or (or x25 (or x140 (or x83 x26))) x132))))))))))
(assert (or (or (or (= (x97 x150 x150) x150) (or (= x24 (x97 x24 x24)) (= x82 (x97 x82 x82)))) (= x18 (x97 x18 x18))) (= (x97 x133 x133) x133)))
(assert (and (or (or (= x18 (x97 (x97 x133 x18) x133)) (or (= x150 (x97 (x97 x133 x150) x133)) (or (= x82 (x97 (x97 x133 x82) x133)) (= (x97 (x97 x133 x24) x133) x24)))) (= x133 (x97 (x97 x133 x133) x133))) (and (or (or (= x18 (x97 (x97 x18 x18) x18)) (or (= x150 (x97 (x97 x18 x150) x18)) (or (= x82 (x97 (x97 x18 x82) x18)) (= (x97 (x97 x18 x24) x18) x24)))) (= x133 (x97 (x97 x18 x133) x18))) (and (or (= x133 (x97 (x97 x150 x133) x150)) (or (or (or (= x82 (x97 (x97 x150 x82) x150)) (= x24 (x97 (x97 x150 x24) x150))) (= x150 (x97 (x97 x150 x150) x150))) (= x18 (x97 (x97 x150 x18) x150)))) (and (or (or (or (or (= (x97 (x97 x82 x82) x82) x82) (= (x97 (x97 x82 x24) x82) x24)) (= x150 (x97 (x97 x82 x150) x82))) (= (x97 (x97 x82 x18) x82) x18)) (= x133 (x97 (x97 x82 x133) x82))) (or (= (x97 (x97 x24 x133) x24) x133) (or (or (= x150 (x97 (x97 x24 x150) x24)) (or (= x82 (x97 (x97 x24 x82) x24)) (= (x97 (x97 x24 x24) x24) x24))) (= (x97 (x97 x24 x18) x24) x18))))))))
(assert (and (= x133 (x97 x24 x18)) (and (and (= (x97 x24 x24) x82) (= x150 (x97 x18 x82))) (= x18 (x97 x24 x82)))))
(assert (let ((x39 (x97 x150 x133)) (x6 (x97 x18 x82)) (x45 (x97 x133 x18)) (x73 (x97 x133 x82)) (x1 (x97 x133 x133)) (x93 (x97 x24 x18)) (x15 (x97 x24 x24)) (x70 (x97 x150 x82)) (x67 (x97 x150 x18)) (x84 (x97 x82 x24)) (x62 (x97 x82 x18)) (x86 (x97 x133 x150)) (x92 (x97 x18 x18)) (x77 (x97 x150 x150)) (x35 (x97 x24 x150)) (x13 (x97 x82 x150)) (x134 (x97 x133 x24)) (x37 (x97 x150 x24)) (x126 (x97 x24 x82)) (x56 (x97 x18 x133)) (x61 (x97 x24 x133)) (x101 (x97 x82 x133)) (x20 (x97 x18 x150)) (x68 (x97 x82 x82)) (x9 (x97 x18 x24))) (and (and (and (and (and (and (and (and (not (= x9 x92)) (and (and (not (= x56 x6)) (and (not (= x92 x6)) (and (not (= x9 x6)) (not (= x6 x20))))) (not (= x20 x9)))) (not (= x9 x56))) (not (= x92 x20))) (not (= x20 x56))) (not (= x92 x56))) (and (and (not (= x39 x67)) (and (not (= x77 x39)) (and (and (not (= x37 x39)) (and (and (and (not (= x39 x70)) (and (not (= x67 x70)) (and (not (= x37 x70)) (not (= x77 x70))))) (not (= x77 x37))) (not (= x67 x37)))) (not (= x77 x67))))) (and (and (not (= x93 x61)) (and (and (not (= x93 x35)) (and (and (and (and (not (= x126 x61)) (and (and (not (= x35 x126)) (not (= x15 x126))) (not (= x126 x93)))) (not (= x15 x35))) (not (= x15 x93))) (not (= x61 x15)))) (not (= x61 x35)))) (and (not (= x101 x62)) (and (not (= x13 x101)) (and (not (= x62 x13)) (and (and (and (and (and (not (= x68 x62)) (and (not (= x68 x84)) (not (= x13 x68)))) (not (= x68 x101))) (not (= x84 x13))) (not (= x84 x62))) (not (= x84 x101))))))))) (and (and (and (and (and (and (not (= x86 x134)) (and (not (= x73 x1)) (and (not (= x73 x45)) (and (not (= x73 x134)) (not (= x86 x73)))))) (not (= x45 x134))) (not (= x1 x134))) (not (= x45 x86))) (not (= x86 x1))) (not (= x45 x1)))) (and (and (and (and (and (not (= x92 x67)) (and (not (= x93 x45)) (and (and (and (not (= x62 x45)) (and (and (not (= x62 x67)) (not (= x62 x93))) (not (= x62 x92)))) (not (= x67 x93))) (not (= x93 x92))))) (not (= x67 x45))) (not (= x45 x92))) (and (and (and (not (= x134 x9)) (and (not (= x134 x37)) (and (and (and (and (and (and (not (= x9 x84)) (and (not (= x15 x84)) (not (= x37 x84)))) (not (= x84 x134))) (not (= x15 x37))) (not (= x15 x9))) (not (= x134 x15))) (not (= x9 x37))))) (and (and (not (= x70 x73)) (and (not (= x6 x70)) (and (not (= x73 x126)) (and (and (not (= x70 x126)) (and (not (= x68 x73)) (and (not (= x6 x68)) (and (not (= x70 x68)) (not (= x126 x68)))))) (not (= x126 x6)))))) (not (= x73 x6)))) (and (not (= x20 x86)) (and (not (= x77 x86)) (and (and (and (not (= x20 x35)) (and (not (= x77 x35)) (and (and (and (not (= x13 x77)) (not (= x13 x35))) (not (= x13 x20))) (not (= x86 x13))))) (not (= x86 x35))) (not (= x77 x20))))))) (and (and (not (= x1 x39)) (and (and (and (and (and (and (not (= x56 x101)) (and (not (= x101 x61)) (not (= x39 x101)))) (not (= x1 x101))) (not (= x61 x39))) (not (= x61 x56))) (not (= x61 x1))) (not (= x39 x56)))) (not (= x1 x56)))))))
(assert (let ((x35 (x97 x150 x24)) (x67 (x97 x18 x150)) (x37 (x97 x24 x150)) (x93 (x97 x18 x24)) (x45 (x97 x18 x133)) (x73 (x97 x82 x133)) (x134 (x97 x24 x133)) (x77 (x97 x150 x150)) (x101 (x97 x133 x82)) (x13 (x97 x150 x82)) (x6 (x97 x82 x18)) (x20 (x97 x150 x18)) (x92 (x97 x18 x18)) (x61 (x97 x133 x24)) (x62 (x97 x18 x82)) (x56 (x97 x133 x18)) (x86 (x97 x150 x133)) (x68 (x97 x82 x82)) (x84 (x97 x24 x82)) (x9 (x97 x24 x18)) (x39 (x97 x133 x150)) (x70 (x97 x82 x150)) (x15 (x97 x24 x24)) (x126 (x97 x82 x24)) (x1 (x97 x133 x133))) (and (and (and (and (and (and (and (and (or (or (or (= x68 x150) (or (= x68 x24) (= x68 x82))) (= x18 x68)) (= x68 x133)) (or (= x126 x133) (or (= x18 x126) (or (= x126 x150) (or (= x126 x82) (= x24 x126)))))) (or (or (or (= x70 x150) (or (= x70 x24) (= x82 x70))) (= x18 x70)) (= x133 x70))) (or (or (or (= x150 x6) (or (= x6 x82) (= x6 x24))) (= x6 x18)) (= x6 x133))) (or (= x73 x133) (or (or (= x150 x73) (or (= x24 x73) (= x82 x73))) (= x73 x18)))) (and (or (= x134 x133) (or (= x18 x134) (or (or (= x134 x24) (= x134 x82)) (= x150 x134)))) (and (and (or (or (= x18 x37) (or (= x150 x37) (or (= x37 x24) (= x82 x37)))) (= x133 x37)) (and (or (= x133 x15) (or (= x18 x15) (or (= x150 x15) (or (= x15 x82) (= x15 x24))))) (or (= x84 x133) (or (= x84 x18) (or (= x84 x150) (or (= x84 x82) (= x24 x84))))))) (or (or (= x18 x9) (or (= x150 x9) (or (= x24 x9) (= x82 x9)))) (= x9 x133))))) (and (or (or (or (= x150 x86) (or (= x82 x86) (= x86 x24))) (= x86 x18)) (= x133 x86)) (and (or (= x20 x133) (or (= x18 x20) (or (= x20 x150) (or (= x24 x20) (= x82 x20))))) (and (or (or (= x18 x77) (or (or (= x77 x24) (= x82 x77)) (= x77 x150))) (= x77 x133)) (and (or (or (or (or (= x35 x24) (= x35 x82)) (= x150 x35)) (= x35 x18)) (= x133 x35)) (or (= x133 x13) (or (or (= x13 x150) (or (= x24 x13) (= x13 x82))) (= x18 x13)))))))) (and (and (and (and (or (or (= x18 x93) (or (= x150 x93) (or (= x93 x82) (= x24 x93)))) (= x93 x133)) (or (or (= x18 x62) (or (= x62 x150) (or (= x62 x82) (= x62 x24)))) (= x133 x62))) (or (= x67 x133) (or (= x67 x18) (or (or (= x67 x24) (= x82 x67)) (= x150 x67))))) (or (= x92 x133) (or (or (or (= x92 x24) (= x92 x82)) (= x150 x92)) (= x92 x18)))) (or (= x45 x133) (or (or (= x150 x45) (or (= x45 x82) (= x24 x45))) (= x18 x45))))) (and (and (and (or (or (or (= x150 x39) (or (= x24 x39) (= x82 x39))) (= x18 x39)) (= x133 x39)) (and (or (or (= x18 x101) (or (= x101 x150) (or (= x101 x82) (= x101 x24)))) (= x133 x101)) (or (or (= x18 x61) (or (or (= x61 x82) (= x24 x61)) (= x150 x61))) (= x133 x61)))) (or (= x56 x133) (or (= x18 x56) (or (= x56 x150) (or (= x24 x56) (= x82 x56)))))) (or (= x1 x133) (or (or (or (= x24 x1) (= x1 x82)) (= x1 x150)) (= x18 x1)))))))
(assert (or (or (or (or (and (not (= (x97 x133 (x97 x24 x133)) x24)) (and (not (= (x97 x18 (x97 x24 x18)) x24)) (and (and (not (= x24 (x97 x82 (x97 x24 x82)))) (not (= (x97 x24 (x97 x24 x24)) x24))) (not (= (x97 x150 (x97 x24 x150)) x24))))) (and (and (and (not (= (x97 x150 (x97 x82 x150)) x82)) (and (not (= x82 (x97 x24 (x97 x82 x24)))) (not (= (x97 x82 (x97 x82 x82)) x82)))) (not (= (x97 x18 (x97 x82 x18)) x82))) (not (= (x97 x133 (x97 x82 x133)) x82)))) (and (not (= (x97 x133 (x97 x150 x133)) x150)) (and (and (not (= x150 (x97 x150 (x97 x150 x150)))) (and (not (= x150 (x97 x24 (x97 x150 x24)))) (not (= x150 (x97 x82 (x97 x150 x82)))))) (not (= x150 (x97 x18 (x97 x150 x18))))))) (and (and (and (not (= (x97 x150 (x97 x18 x150)) x18)) (and (not (= x18 (x97 x82 (x97 x18 x82)))) (not (= x18 (x97 x24 (x97 x18 x24)))))) (not (= (x97 x18 (x97 x18 x18)) x18))) (not (= (x97 x133 (x97 x18 x133)) x18)))) (and (not (= x133 (x97 x133 (x97 x133 x133)))) (and (and (and (not (= (x97 x24 (x97 x133 x24)) x133)) (not (= (x97 x82 (x97 x133 x82)) x133))) (not (= x133 (x97 x150 (x97 x133 x150))))) (not (= x133 (x97 x18 (x97 x133 x18))))))))
(assert (and (and (and (and (not (= x24 x133)) (and (not (= x24 x18)) (and (and (and (not (= x18 x82)) (and (not (= x150 x82)) (not (= x82 x24)))) (not (= x133 x82))) (not (= x24 x150))))) (not (= x18 x150))) (not (= x150 x133))) (not (= x133 x18))))
(assert (or (or (and (not (= x133 (x97 x18 (x97 x18 x133)))) (and (not (= x18 (x97 x18 (x97 x18 x18)))) (and (and (not (= x24 (x97 x18 (x97 x18 x24)))) (not (= x82 (x97 x18 (x97 x18 x82))))) (not (= x150 (x97 x18 (x97 x18 x150))))))) (or (and (and (and (not (= (x97 x150 (x97 x150 x150)) x150)) (and (not (= x24 (x97 x150 (x97 x150 x24)))) (not (= x82 (x97 x150 (x97 x150 x82)))))) (not (= (x97 x150 (x97 x150 x18)) x18))) (not (= (x97 x150 (x97 x150 x133)) x133))) (or (and (and (not (= (x97 x82 (x97 x82 x18)) x18)) (and (not (= (x97 x82 (x97 x82 x150)) x150)) (and (not (= (x97 x82 (x97 x82 x24)) x24)) (not (= x82 (x97 x82 (x97 x82 x82))))))) (not (= (x97 x82 (x97 x82 x133)) x133))) (and (not (= (x97 x24 (x97 x24 x133)) x133)) (and (not (= x18 (x97 x24 (x97 x24 x18)))) (and (not (= (x97 x24 (x97 x24 x150)) x150)) (and (not (= (x97 x24 (x97 x24 x82)) x82)) (not (= x24 (x97 x24 (x97 x24 x24))))))))))) (and (not (= (x97 x133 (x97 x133 x133)) x133)) (and (not (= x18 (x97 x133 (x97 x133 x18)))) (and (and (not (= (x97 x133 (x97 x133 x24)) x24)) (not (= x82 (x97 x133 (x97 x133 x82))))) (not (= (x97 x133 (x97 x133 x150)) x150)))))))
(assert (not (and (= x82 (x97 x133 x133)) (and (= x24 (x97 x133 x18)) (and (and (and (and (= x24 (x97 x18 x133)) (and (= x82 (x97 x18 x18)) (and (= (x97 x18 x150) x18) (and (= x133 (x97 x18 x24)) (and (and (= (x97 x150 x133) x133) (and (and (= x82 (x97 x150 x150)) (and (and (= x24 (x97 x150 x82)) (and (= (x97 x24 x133) x150) (and (= (x97 x24 x18) x133) (and (= x24 (x97 x24 x150)) (and (= (x97 x24 x24) x82) (and (and (and (= (x97 x82 x18) x150) (and (= x133 (x97 x82 x150)) (and (= x24 (x97 x82 x24)) (= x82 (x97 x82 x82))))) (= x18 (x97 x82 x133))) (= (x97 x24 x82) x18))))))) (= (x97 x150 x24) x150))) (= (x97 x150 x18) x18))) (= (x97 x18 x82) x150)))))) (= (x97 x133 x82) x133)) (= x18 (x97 x133 x24))) (= x150 (x97 x133 x150)))))))
(assert (or (or (and (and (and (not (= (x97 (x97 x150 x18) x150) x18)) (and (not (= x18 (x97 (x97 x82 x18) x82))) (not (= (x97 (x97 x24 x18) x24) x18)))) (not (= (x97 (x97 x18 x18) x18) x18))) (not (= x18 (x97 (x97 x133 x18) x133)))) (or (or (and (not (= (x97 (x97 x133 x82) x133) x82)) (and (and (not (= (x97 (x97 x150 x82) x150) x82)) (and (not (= (x97 (x97 x82 x82) x82) x82)) (not (= x82 (x97 (x97 x24 x82) x24))))) (not (= x82 (x97 (x97 x18 x82) x18))))) (and (and (and (not (= x24 (x97 (x97 x150 x24) x150))) (and (not (= x24 (x97 (x97 x24 x24) x24))) (not (= x24 (x97 (x97 x82 x24) x82))))) (not (= x24 (x97 (x97 x18 x24) x18)))) (not (= (x97 (x97 x133 x24) x133) x24)))) (and (and (and (not (= (x97 (x97 x150 x150) x150) x150)) (and (not (= x150 (x97 (x97 x24 x150) x24))) (not (= (x97 (x97 x82 x150) x82) x150)))) (not (= x150 (x97 (x97 x18 x150) x18)))) (not (= x150 (x97 (x97 x133 x150) x133)))))) (and (not (= (x97 (x97 x133 x133) x133) x133)) (and (not (= x133 (x97 (x97 x18 x133) x18))) (and (and (not (= (x97 (x97 x82 x133) x82) x133)) (not (= x133 (x97 (x97 x24 x133) x24)))) (not (= (x97 (x97 x150 x133) x150) x133)))))))
(assert (let ((x103 (x97 x133 x82)) (x159 (x97 x24 x82)) (x66 (x97 x133 x150)) (x88 (x97 x150 x133)) (x123 (x97 x150 x150)) (x144 (x97 x82 x18)) (x114 (x97 x150 x24)) (x72 (x97 x82 x82)) (x63 (x97 x82 x150)) (x27 (x97 x24 x18)) (x146 (x97 x18 x18)) (x41 (x97 x24 x133)) (x43 (x97 x150 x82)) (x53 (x97 x24 x150)) (x90 (x97 x82 x133)) (x17 (x97 x82 x24)) (x34 (x97 x18 x82)) (x64 (x97 x133 x18)) (x127 (x97 x150 x18)) (x21 (x97 x18 x24)) (x98 (x97 x24 x24)) (x121 (x97 x133 x24)) (x31 (x97 x18 x133)) (x129 (x97 x18 x150)) (x112 (x97 x133 x133))) (let ((x156 (= x98 x150)) (x65 (= x72 x133)) (x92 (= x121 x82)) (x106 (= x150 x114)) (x76 (= x129 x133)) (x8 (= x21 x133)) (x60 (= x17 x133)) (x107 (= x133 x103)) (x135 (= x150 x90)) (x116 (= x63 x150)) (x110 (= x17 x150)) (x28 (= x24 x112)) (x48 (= x123 x24)) (x147 (= x98 x24)) (x74 (= x146 x150)) (x111 (= x18 x123)) (x15 (= x114 x82)) (x128 (= x53 x133)) (x145 (= x34 x18)) (x32 (= x133 x63)) (x46 (= x41 x133)) (x138 (= x24 x21)) (x3 (= x18 x88)) (x12 (= x21 x150)) (x36 (= x133 x112)) (x26 (= x18 x127)) (x151 (= x146 x133)) (x9 (= x82 x123)) (x148 (= x121 x150)) (x89 (= x121 x133)) (x132 (= x64 x18)) (x40 (= x150 x103)) (x134 (= x34 x82)) (x71 (= x159 x150)) (x157 (= x24 x103)) (x42 (= x127 x24)) (x54 (= x18 x41)) (x39 (= x64 x82)) (x25 (= x18 x103)) (x95 (= x66 x150)) (x105 (= x133 x159)) (x120 (= x133 x123)) (x158 (= x150 x129)) (x23 (= x150 x112)) (x99 (= x34 x133)) (x126 (= x159 x82)) (x78 (= x24 x144)) (x109 (= x31 x133)) (x85 (= x90 x133)) (x131 (= x27 x24)) (x152 (= x150 x123)) (x22 (= x53 x150)) (x2 (= x24 x43)) (x139 (= x144 x18)) (x10 (= x24 x88)) (x67 (= x90 x82)) (x154 (= x24 x129)) (x81 (= x150 x31)) (x59 (= x18 x63)) (x142 (= x150 x72)) (x118 (= x150 x41)) (x155 (= x24 x114)) (x19 (= x27 x18)) (x73 (= x82 x43)) (x84 (= x82 x63)) (x35 (= x21 x82)) (x124 (= x18 x53)) (x33 (= x64 x133)) (x93 (= x82 x103)) (x140 (= x18 x146)) (x153 (= x31 x24)) (x44 (= x133 x66)) (x141 (= x144 x133)) (x77 (= x27 x82)) (x16 (= x24 x90)) (x104 (= x27 x150)) (x96 (= x63 x24)) (x102 (= x18 x66)) (x91 (= x127 x150)) (x7 (= x66 x24)) (x70 (= x17 x82)) (x55 (= x53 x24)) (x61 (= x82 x88)) (x45 (= x41 x82)) (x79 (= x24 x41)) (x6 (= x98 x82)) (x149 (= x88 x150)) (x1 (= x82 x112)) (x68 (= x72 x82)) (x30 (= x43 x133)) (x137 (= x18 x17)) (x50 (= x98 x18)) (x57 (= x18 x90)) (x115 (= x31 x18)) (x125 (= x18 x159)) (x37 (= x82 x53)) (x80 (= x24 x159)) (x130 (= x64 x24)) (x51 (= x133 x27)) (x108 (= x43 x150)) (x52 (= x72 x24)) (x94 (= x133 x98)) (x56 (= x82 x31)) (x119 (= x133 x88)) (x86 (= x82 x127)) (x4 (= x146 x24)) (x101 (= x82 x66)) (x83 (= x18 x129)) (x29 (= x24 x17)) (x11 (= x34 x150)) (x47 (= x133 x127)) (x87 (= x18 x112)) (x38 (= x72 x18)) (x117 (= x18 x114)) (x143 (= x114 x133)) (x13 (= x144 x82)) (x62 (= x82 x146)) (x122 (= x150 x144)) (x20 (= x129 x82)) (x49 (= x24 x121)) (x14 (= x43 x18)) (x100 (= x24 x34)) (x75 (= x150 x64)) (x5 (= x21 x18)) (x136 (= x121 x18))) (and (and (or (or (and x87 x87) (or (or (or (and x136 x54) (and x25 x57)) (and x102 x3)) (and x132 x115))) (or (or (or (or (or (or (and x124 x117) (or (and x137 x125) (and x50 x50))) (and x5 x19)) (and x54 x136)) (or (or (or (or (and x38 x38) (and x125 x137)) (and x59 x14)) (and x145 x139)) (and x25 x57))) (or (or (or (and x111 x111) (or (and x59 x14) (and x124 x117))) (and x26 x83)) (and x102 x3))) (or (and x132 x115) (or (and x140 x140) (or (or (and x19 x5) (and x145 x139)) (and x83 x26)))))) (and (and (or (or (or (or (or (or (and x100 x78) (and x138 x131)) (and x154 x42)) (and x4 x4)) (and x130 x153)) (or (or (or (or (or (and x55 x155) (or (and x147 x147) (and x29 x80))) (and x138 x131)) (and x79 x49)) (or (or (or (or (and x80 x29) (and x52 x52)) (and x2 x96)) (and x78 x100)) (and x157 x16))) (or (or (and x154 x42) (or (or (and x2 x96) (and x55 x155)) (and x48 x48))) (and x10 x7)))) (or (and x28 x28) (or (and x130 x153) (or (or (and x49 x79) (and x157 x16)) (and x10 x7))))) (or (or (and x1 x1) (or (and x39 x56) (or (or (and x67 x93) (and x45 x92)) (and x61 x101)))) (or (or (and x39 x56) (or (and x62 x62) (or (and x20 x86) (or (and x35 x77) (and x13 x134))))) (or (or (or (and x67 x93) (or (or (and x84 x73) (or (and x126 x70) (and x68 x68))) (and x134 x13))) (or (and x45 x92) (or (and x77 x35) (or (or (and x126 x70) (and x6 x6)) (and x15 x37))))) (or (or (or (and x9 x9) (or (and x84 x73) (and x15 x37))) (and x86 x20)) (and x61 x101)))))) (or (or (or (and x75 x81) (or (and x74 x74) (or (or (and x12 x104) (and x122 x11)) (and x158 x91)))) (or (or (or (or (or (or (and x110 x71) (and x142 x142)) (and x116 x108)) (and x122 x11)) (and x40 x135)) (or (and x118 x148) (or (and x104 x12) (or (and x22 x106) (or (and x156 x156) (and x110 x71)))))) (or (and x149 x95) (or (or (or (and x22 x106) (and x108 x116)) (and x152 x152)) (and x91 x158))))) (or (and x23 x23) (or (or (or (and x135 x40) (and x148 x118)) (and x149 x95)) (and x75 x81)))))) (or (or (or (or (or (or (or (or (and x105 x60) (and x94 x94)) (and x143 x128)) (and x51 x8)) (and x89 x46)) (or (and x85 x107) (or (and x99 x141) (or (or (and x105 x60) (and x65 x65)) (and x32 x30))))) (or (and x44 x119) (or (and x47 x76) (or (or (and x32 x30) (and x143 x128)) (and x120 x120))))) (or (or (or (and x47 x76) (or (and x141 x99) (and x8 x51))) (and x151 x151)) (and x33 x109))) (or (and x36 x36) (or (and x33 x109) (or (or (and x107 x85) (and x46 x89)) (and x119 x44)))))))))
(assert (let ((x6 (x97 x18 x18)) (x73 (x97 x133 x133)) (x70 (x97 x150 x150)) (x126 (x97 x24 x24)) (x68 (x97 x82 x82))) (or (and (not (= x133 x73)) (and (not (= x6 x133)) (and (and (not (= x68 x133)) (not (= x133 x126))) (not (= x133 x70))))) (or (or (and (not (= x150 x73)) (and (and (and (not (= x150 x68)) (not (= x126 x150))) (not (= x150 x70))) (not (= x150 x6)))) (or (and (not (= x73 x24)) (and (and (not (= x70 x24)) (and (not (= x126 x24)) (not (= x24 x68)))) (not (= x6 x24)))) (and (and (and (not (= x82 x70)) (and (not (= x82 x68)) (not (= x126 x82)))) (not (= x6 x82))) (not (= x82 x73))))) (and (not (= x18 x73)) (and (not (= x6 x18)) (and (not (= x18 x70)) (and (not (= x68 x18)) (not (= x18 x126))))))))))
(assert (let ((x9 (x97 x150 x150)) (x35 (x97 x18 x24)) (x62 (x97 x18 x18)) (x70 (x97 x82 x24)) (x77 (x97 x24 x18)) (x86 (x97 x150 x18)) (x84 (x97 x82 x150)) (x93 (x97 x133 x82)) (x56 (x97 x18 x133)) (x126 (x97 x24 x82)) (x134 (x97 x18 x82)) (x6 (x97 x24 x24)) (x1 (x97 x133 x133)) (x68 (x97 x82 x82)) (x13 (x97 x82 x18)) (x92 (x97 x133 x24)) (x45 (x97 x24 x133)) (x101 (x97 x133 x150)) (x67 (x97 x82 x133)) (x20 (x97 x18 x150)) (x73 (x97 x150 x82)) (x39 (x97 x133 x18)) (x61 (x97 x150 x133)) (x15 (x97 x150 x24)) (x37 (x97 x24 x150))) (or (or (or (or (and (and (and (= x37 x15) (and (= x6 x6) (= x70 x126))) (= x77 x35)) (= x92 x45)) (and (and (and (and (= x126 x70) (= x68 x68)) (= x73 x84)) (= x13 x134)) (= x67 x93))) (and (and (= x20 x86) (and (= x9 x9) (and (= x73 x84) (= x37 x15)))) (= x61 x101))) (and (and (and (and (= x13 x134) (= x35 x77)) (= x86 x20)) (= x62 x62)) (= x39 x56))) (and (and (= x56 x39) (and (= x101 x61) (and (= x93 x67) (= x45 x92)))) (= x1 x1)))))
(check-sat)
(exit)
